NAME : LPS-n30-m268
COMMENT : (Lartu-Peter-Santi Plot, instance 11068 out of 39200. 30 customers.)
TYPE : CVRP
DIMENSION : 30
EDGE_WEIGHT_TYPE : EUC_2D
CAPACITY : 80
NODE_COORD_SECTION
 1 34 70
 2 38 81
 3 42 53
 4 62 17
 5 17 5
 6 26 51
 7 95 51
 8 72 86
 9 92 20
 10 84 100
 11 72 81
 12 48 29
 13 93 41
 14 38 56
 15 46 29
 16 79 64
 17 8 75
 18 68 5
 19 64 14
 20 12 74
 21 33 88
 22 94 34
 23 43 40
 24 65 21
 25 24 97
 26 60 35
 27 59 98
 28 37 97
 29 17 81
 30 71 49
DEMAND_SECTION
1 0
2 66
3 79
4 42
5 75
6 5
7 24
8 2
9 11
10 37
11 4
12 22
13 60
14 42
15 10
16 45
17 32
18 22
19 41
20 61
21 57
22 23
23 56
24 20
25 29
26 45
27 30
28 73
29 68
30 53
DEPOT_SECTION
 1
 -1
EOF
